
Gurobi 11.0.3 (linux64) logging started Sun Nov 24 16:55:09 2024

Set parameter LogFile to value "/home/yihong/Coding/OR_SUC/SUC_results_bigM100000_thread4/case24_ieee_rts_theta0.5_epsilon0.05_gurobi_seed1440000_num_gen100_N_WDR100_load_scaling_factor1_exact_T12quadra_cost.txt"
Set parameter TimeLimit to value 3600
Gurobi Optimizer version 11.0.3 build v11.0.3rc0 (linux64 - "Ubuntu 20.04.6 LTS")

CPU model: AMD EPYC 7532 32-Core Processor, instruction set [SSE2|AVX|AVX2]
Thread count: 64 physical cores, 128 logical processors, using up to 4 threads

Optimize a model with 28631 rows, 15081 columns and 662130 nonzeros
Model fingerprint: 0xcea5a4d5
Model has 1200 quadratic constraints
Variable types: 13781 continuous, 1300 integer (1300 binary)
Coefficient statistics:
  Matrix range     [3e-04, 1e+05]
  QMatrix range    [2e-03, 8e-03]
  QLMatrix range   [3e-01, 6e+01]
  Objective range  [1e+00, 1e+00]
  Bounds range     [1e+00, 1e+00]
  RHS range        [1e+00, 1e+05]
Presolve removed 23600 rows and 6564 columns
Presolve time: 0.17s
Presolved: 5031 rows, 8517 columns, 28297 nonzeros
Presolved model has 1200 quadratic constraint(s)
Variable types: 7252 continuous, 1265 integer (1265 binary)

Root relaxation: objective 2.228096e+04, 4194 iterations, 0.08 seconds (0.12 work units)

    Nodes    |    Current Node    |     Objective Bounds      |     Work
 Expl Unexpl |  Obj  Depth IntInf | Incumbent    BestBd   Gap | It/Node Time

     0     0 22280.9631    0   22          - 22280.9631      -     -    0s
     0     0 120195.720    0  442          - 120195.720      -     -    0s
     0     0 120560.903    0  435          - 120560.903      -     -    0s
     0     0 256678.820    0  335          - 256678.820      -     -    0s
     0     0 256694.128    0  220          - 256694.128      -     -    0s
     0     0 256876.627    0  170          - 256876.627      -     -    0s
     0     0 256877.693    0  170          - 256877.693      -     -    0s
     0     0 256877.693    0  170          - 256877.693      -     -    0s
     0     0 256877.764    0  170          - 256877.764      -     -    0s
     0     2 256877.764    0  170          - 256877.764      -     -    1s
H  304   255                    256906.48094 256890.377  0.01%  12.3    2s
*  304   255              79    256906.48094 256890.377  0.01%  12.3    2s

Cutting planes:
  Gomory: 43
  Implied bound: 289
  MIR: 49
  Flow cover: 91
  RLT: 8
  Relax-and-lift: 2

Explored 370 nodes (16848 simplex iterations) in 2.62 seconds (3.17 work units)
Thread count was 4 (of 128 available processors)

Solution count 2: 256906 256906 

Optimal solution found (tolerance 1.00e-03)
Warning: max constraint violation (5.1575e-07) exceeds tolerance
Best objective 2.569064809421e+05, best bound 2.568926301228e+05, gap 0.0054%
